RobustCbss/GLKH-1.1/TMP/mtspf.pid6779.atsp
NAME : mtspf.pid6779.gtsp
TYPE : ATSP
DIMENSION : 45
EDGE_WEIGHT_TYPE : EXPLICIT
EDGE_WEIGHT_FORMAT : FULL_MATRIX
EDGE_WEIGHT_SECTION
999999 5368709 5368709 5368709 5368709 5368733 5368732 5368733 5368732 5368747 5368746 5368745 5368746 5368721 5368722 5368721 5368720 5368726 5368725 5368724 5368725 5368738 5368739 5368738 5368739 5368716 5368717 5368716 5368715 5368721 5368720 5368719 5368720 5368747 5368746 5368747 5368748 5368741 5368740 5368741 5368742 5368736 5368735 5368734 5368735 
5368709 999999 5368709 5368709 5368709 5368722 5368723 5368724 5368723 5368742 5368741 5368742 5368743 5368726 5368727 5368728 5368727 5368741 5368742 5368743 5368742 5368749 5368750 5368751 5368750 5368735 5368734 5368735 5368736 5368728 5368727 5368728 5368729 5368742 5368741 5368742 5368743 5368756 5368755 5368756 5368757 5368731 5368730 5368731 5368732 
5368709 5368709 999999 5368709 5368709 5368745 5368744 5368745 5368746 5368759 5368758 5368757 5368758 5368735 5368736 5368735 5368734 5368738 5368737 5368736 5368737 5368750 5368751 5368750 5368751 5368730 5368731 5368730 5368729 5368733 5368732 5368731 5368732 5368761 5368760 5368761 5368762 5368749 5368748 5368749 5368750 5368750 5368749 5368748 5368749 
5368709 5368709 5368709 999999 5368709 5368726 5368725 5368726 5368727 5368746 5368745 5368744 5368745 5368724 5368725 5368726 5368725 5368739 5368740 5368741 5368740 5368747 5368748 5368749 5368748 5368731 5368730 5368731 5368732 5368724 5368723 5368724 5368725 5368746 5368745 5368746 5368747 5368754 5368753 5368754 5368755 5368735 5368734 5368735 5368736 
5368709 5368709 5368709 5368709 999999 5368730 5368729 5368730 5368731 5368750 5368749 5368748 5368749 5368724 5368723 5368724 5368725 5368733 5368732 5368731 5368732 5368745 5368746 5368745 5368746 5368721 5368720 5368721 5368722 5368718 5368717 5368716 5368717 5368750 5368749 5368750 5368751 5368748 5368747 5368748 5368749 5368741 5368740 5368739 5368740 
5368709 5368709 5368709 5368709 5368709 999999 0 10737418 10737418 5368732 5368731 5368732 5368733 5368724 5368723 5368724 5368723 5368733 5368734 5368735 5368734 5368741 5368742 5368743 5368742 5368731 5368730 5368731 5368730 5368728 5368727 5368728 5368729 5368732 5368731 5368732 5368733 5368748 5368747 5368748 5368749 5368721 5368720 5368719 5368720 
5368709 5368709 5368709 5368709 5368709 10737418 999999 0 10737418 5368731 5368730 5368731 5368732 5368723 5368722 5368723 5368724 5368734 5368735 5368736 5368735 5368742 5368743 5368744 5368743 5368730 5368729 5368730 5368731 5368727 5368726 5368727 5368728 5368731 5368730 5368731 5368732 5368749 5368748 5368749 5368750 5368720 5368719 5368720 5368721 
5368709 5368709 5368709 5368709 5368709 10737418 10737418 999999 0 5368732 5368731 5368732 5368733 5368722 5368721 5368722 5368723 5368735 5368736 5368737 5368736 5368741 5368742 5368743 5368742 5368729 5368728 5368729 5368730 5368726 5368725 5368726 5368727 5368732 5368731 5368732 5368733 5368748 5368747 5368748 5368749 5368721 5368720 5368721 5368722 
5368709 5368709 5368709 5368709 5368709 0 10737418 10737418 999999 5368733 5368732 5368733 5368734 5368723 5368722 5368723 5368724 5368734 5368735 5368736 5368735 5368740 5368741 5368742 5368741 5368730 5368729 5368730 5368731 5368727 5368726 5368727 5368728 5368733 5368732 5368733 5368734 5368747 5368746 5368747 5368748 5368722 5368721 5368720 5368721 
5368709 5368709 5368709 5368709 5368709 5368732 5368733 5368734 5368733 999999 0 10737418 10737418 5368736 5368737 5368738 5368737 5368731 5368732 5368733 5368732 5368731 5368732 5368733 5368732 5368743 5368744 5368743 5368742 5368746 5368745 5368746 5368747 5368720 5368719 5368718 5368719 5368738 5368737 5368738 5368739 5368729 5368730 5368729 5368730 
5368709 5368709 5368709 5368709 5368709 5368731 5368732 5368733 5368732 10737418 999999 0 10737418 5368737 5368738 5368739 5368738 5368732 5368733 5368734 5368733 5368732 5368733 5368734 5368733 5368744 5368745 5368744 5368743 5368747 5368746 5368747 5368748 5368719 5368718 5368717 5368718 5368739 5368738 5368739 5368740 5368728 5368729 5368728 5368729 
5368709 5368709 5368709 5368709 5368709 5368730 5368731 5368732 5368731 10737418 10737418 999999 0 5368736 5368737 5368738 5368737 5368731 5368732 5368733 5368732 5368731 5368732 5368733 5368732 5368743 5368744 5368743 5368742 5368746 5368745 5368746 5368747 5368718 5368717 5368716 5368717 5368738 5368737 5368738 5368739 5368727 5368728 5368727 5368728 
5368709 5368709 5368709 5368709 5368709 5368731 5368732 5368733 5368732 0 10737418 10737418 999999 5368735 5368736 5368737 5368736 5368730 5368731 5368732 5368731 5368730 5368731 5368732 5368731 5368742 5368743 5368742 5368741 5368745 5368744 5368745 5368746 5368719 5368718 5368717 5368718 5368737 5368736 5368737 5368738 5368728 5368729 5368728 5368729 
5368709 5368709 5368709 5368709 5368709 5368724 5368723 5368724 5368723 5368738 5368737 5368736 5368737 999999 0 10737418 10737418 5368725 5368726 5368727 5368726 5368735 5368736 5368737 5368736 5368719 5368720 5368719 5368718 5368720 5368721 5368722 5368721 5368738 5368737 5368738 5368739 5368742 5368741 5368742 5368743 5368727 5368726 5368725 5368726 
5368709 5368709 5368709 5368709 5368709 5368723 5368722 5368723 5368724 5368737 5368736 5368735 5368736 10737418 999999 0 10737418 5368726 5368727 5368728 5368727 5368736 5368737 5368738 5368737 5368720 5368719 5368720 5368719 5368719 5368720 5368721 5368720 5368739 5368738 5368739 5368740 5368743 5368742 5368743 5368744 5368728 5368727 5368726 5368727 
5368709 5368709 5368709 5368709 5368709 5368722 5368721 5368722 5368723 5368738 5368737 5368736 5368737 10737418 10737418 999999 0 5368727 5368728 5368729 5368728 5368737 5368738 5368739 5368738 5368719 5368718 5368719 5368720 5368718 5368719 5368720 5368719 5368740 5368739 5368740 5368741 5368744 5368743 5368744 5368745 5368729 5368728 5368727 5368728 
5368709 5368709 5368709 5368709 5368709 5368723 5368722 5368723 5368724 5368739 5368738 5368737 5368738 0 10737418 10737418 999999 5368726 5368727 5368728 5368727 5368736 5368737 5368738 5368737 5368720 5368719 5368720 5368719 5368719 5368720 5368721 5368720 5368739 5368738 5368739 5368740 5368743 5368742 5368743 5368744 5368728 5368727 5368726 5368727 
5368709 5368709 5368709 5368709 5368709 5368735 5368736 5368735 5368734 5368733 5368732 5368731 5368732 5368727 5368728 5368727 5368726 999999 0 10737418 10737418 5368722 5368723 5368722 5368723 5368722 5368723 5368722 5368721 5368729 5368728 5368727 5368728 5368739 5368738 5368737 5368738 5368725 5368724 5368725 5368726 5368738 5368737 5368736 5368737 
5368709 5368709 5368709 5368709 5368709 5368734 5368735 5368734 5368733 5368732 5368731 5368730 5368731 5368726 5368727 5368726 5368725 10737418 999999 0 10737418 5368723 5368724 5368723 5368724 5368723 5368724 5368723 5368722 5368730 5368729 5368728 5368729 5368738 5368737 5368736 5368737 5368726 5368725 5368726 5368727 5368737 5368736 5368735 5368736 
5368709 5368709 5368709 5368709 5368709 5368735 5368736 5368735 5368734 5368733 5368732 5368731 5368732 5368727 5368728 5368727 5368726 10737418 10737418 999999 0 5368724 5368725 5368724 5368725 5368722 5368723 5368722 5368721 5368729 5368728 5368727 5368728 5368739 5368738 5368737 5368738 5368727 5368726 5368727 5368728 5368738 5368737 5368736 5368737 
5368709 5368709 5368709 5368709 5368709 5368736 5368737 5368736 5368735 5368734 5368733 5368732 5368733 5368728 5368729 5368728 5368727 0 10737418 10737418 999999 5368723 5368724 5368723 5368724 5368721 5368722 5368721 5368720 5368728 5368727 5368726 5368727 5368740 5368739 5368738 5368739 5368726 5368725 5368726 5368727 5368739 5368738 5368737 5368738 
5368709 5368709 5368709 5368709 5368709 5368743 5368742 5368741 5368742 5368733 5368732 5368731 5368732 5368737 5368738 5368737 5368736 5368724 5368725 5368724 5368723 999999 0 10737418 10737418 5368736 5368737 5368736 5368735 5368743 5368742 5368741 5368742 5368741 5368740 5368739 5368740 5368717 5368716 5368717 5368718 5368746 5368745 5368744 5368745 
5368709 5368709 5368709 5368709 5368709 5368742 5368741 5368740 5368741 5368732 5368731 5368730 5368731 5368736 5368737 5368736 5368735 5368723 5368724 5368723 5368722 10737418 999999 0 10737418 5368735 5368736 5368735 5368734 5368742 5368741 5368740 5368741 5368740 5368739 5368738 5368739 5368718 5368717 5368718 5368719 5368745 5368744 5368743 5368744 
5368709 5368709 5368709 5368709 5368709 5368743 5368742 5368741 5368742 5368733 5368732 5368731 5368732 5368737 5368738 5368737 5368736 5368724 5368725 5368724 5368723 10737418 10737418 999999 0 5368736 5368737 5368736 5368735 5368743 5368742 5368741 5368742 5368741 5368740 5368739 5368740 5368717 5368716 5368717 5368718 5368746 5368745 5368744 5368745 
5368709 5368709 5368709 5368709 5368709 5368744 5368743 5368742 5368743 5368734 5368733 5368732 5368733 5368738 5368739 5368738 5368737 5368723 5368724 5368723 5368722 0 10737418 10737418 999999 5368735 5368736 5368735 5368734 5368742 5368741 5368740 5368741 5368742 5368741 5368740 5368741 5368716 5368715 5368716 5368717 5368747 5368746 5368745 5368746 
5368709 5368709 5368709 5368709 5368709 5368731 5368730 5368731 5368730 5368743 5368742 5368741 5368742 5368719 5368720 5368719 5368718 5368722 5368721 5368720 5368721 5368734 5368735 5368734 5368735 999999 0 10737418 10737418 5368719 5368718 5368717 5368718 5368745 5368744 5368745 5368746 5368737 5368736 5368737 5368738 5368734 5368733 5368732 5368733 
5368709 5368709 5368709 5368709 5368709 5368730 5368729 5368730 5368731 5368744 5368743 5368742 5368743 5368720 5368719 5368720 5368719 5368723 5368722 5368721 5368722 5368735 5368736 5368735 5368736 10737418 999999 0 10737418 5368718 5368717 5368716 5368717 5368746 5368745 5368746 5368747 5368738 5368737 5368738 5368739 5368735 5368734 5368733 5368734 
5368709 5368709 5368709 5368709 5368709 5368729 5368728 5368729 5368730 5368745 5368744 5368743 5368744 5368719 5368718 5368719 5368720 5368724 5368723 5368722 5368723 5368736 5368737 5368736 5368737 10737418 10737418 999999 0 5368717 5368716 5368715 5368716 5368747 5368746 5368747 5368748 5368739 5368738 5368739 5368740 5368736 5368735 5368734 5368735 
5368709 5368709 5368709 5368709 5368709 5368730 5368729 5368730 5368731 5368744 5368743 5368742 5368743 5368720 5368719 5368720 5368719 5368723 5368722 5368721 5368722 5368735 5368736 5368735 5368736 0 10737418 10737418 999999 5368718 5368717 5368716 5368717 5368746 5368745 5368746 5368747 5368738 5368737 5368738 5368739 5368735 5368734 5368733 5368734 
5368709 5368709 5368709 5368709 5368709 5368728 5368727 5368728 5368729 5368748 5368747 5368746 5368747 5368720 5368719 5368720 5368721 5368729 5368728 5368727 5368728 5368741 5368742 5368741 5368742 5368717 5368716 5368717 5368718 999999 0 10737418 10737418 5368748 5368747 5368748 5368749 5368744 5368743 5368744 5368745 5368737 5368736 5368735 5368736 
5368709 5368709 5368709 5368709 5368709 5368727 5368726 5368727 5368728 5368747 5368746 5368745 5368746 5368719 5368718 5368719 5368720 5368730 5368729 5368728 5368729 5368742 5368743 5368742 5368743 5368718 5368717 5368718 5368719 10737418 999999 0 10737418 5368747 5368746 5368747 5368748 5368745 5368744 5368745 5368746 5368736 5368735 5368734 5368735 
5368709 5368709 5368709 5368709 5368709 5368726 5368725 5368726 5368727 5368746 5368745 5368744 5368745 5368720 5368719 5368720 5368721 5368729 5368728 5368727 5368728 5368741 5368742 5368741 5368742 5368717 5368716 5368717 5368718 10737418 10737418 999999 0 5368746 5368745 5368746 5368747 5368744 5368743 5368744 5368745 5368737 5368736 5368735 5368736 
5368709 5368709 5368709 5368709 5368709 5368727 5368726 5368727 5368728 5368747 5368746 5368745 5368746 5368721 5368720 5368721 5368722 5368728 5368727 5368726 5368727 5368740 5368741 5368740 5368741 5368716 5368715 5368716 5368717 0 10737418 10737418 999999 5368747 5368746 5368747 5368748 5368743 5368742 5368743 5368744 5368738 5368737 5368736 5368737 
5368709 5368709 5368709 5368709 5368709 5368732 5368733 5368734 5368733 5368718 5368717 5368718 5368719 5368740 5368741 5368740 5368739 5368737 5368738 5368739 5368738 5368739 5368740 5368741 5368740 5368747 5368748 5368747 5368746 5368748 5368747 5368748 5368749 999999 0 10737418 10737418 5368746 5368745 5368746 5368747 5368727 5368728 5368729 5368728 
5368709 5368709 5368709 5368709 5368709 5368731 5368732 5368733 5368732 5368719 5368718 5368719 5368720 5368739 5368740 5368739 5368738 5368738 5368739 5368740 5368739 5368740 5368741 5368742 5368741 5368746 5368747 5368746 5368745 5368747 5368746 5368747 5368748 10737418 999999 0 10737418 5368747 5368746 5368747 5368748 5368726 5368727 5368728 5368727 
5368709 5368709 5368709 5368709 5368709 5368730 5368731 5368732 5368731 5368718 5368717 5368718 5368719 5368738 5368739 5368738 5368737 5368737 5368738 5368739 5368738 5368739 5368740 5368741 5368740 5368745 5368746 5368745 5368744 5368746 5368745 5368746 5368747 10737418 10737418 999999 0 5368746 5368745 5368746 5368747 5368725 5368726 5368727 5368726 
5368709 5368709 5368709 5368709 5368709 5368731 5368732 5368733 5368732 5368717 5368716 5368717 5368718 5368739 5368740 5368739 5368738 5368736 5368737 5368738 5368737 5368738 5368739 5368740 5368739 5368746 5368747 5368746 5368745 5368747 5368746 5368747 5368748 0 10737418 10737418 999999 5368745 5368744 5368745 5368746 5368726 5368727 5368728 5368727 
5368709 5368709 5368709 5368709 5368709 5368750 5368749 5368748 5368749 5368740 5368739 5368738 5368739 5368744 5368745 5368744 5368743 5368727 5368728 5368727 5368726 5368719 5368718 5368717 5368718 5368739 5368740 5368739 5368738 5368746 5368745 5368744 5368745 5368748 5368747 5368746 5368747 999999 0 10737418 10737418 5368753 5368752 5368751 5368752 
5368709 5368709 5368709 5368709 5368709 5368749 5368748 5368747 5368748 5368739 5368738 5368737 5368738 5368743 5368744 5368743 5368742 5368726 5368727 5368726 5368725 5368718 5368717 5368716 5368717 5368738 5368739 5368738 5368737 5368745 5368744 5368743 5368744 5368747 5368746 5368745 5368746 10737418 999999 0 10737418 5368752 5368751 5368750 5368751 
5368709 5368709 5368709 5368709 5368709 5368748 5368747 5368746 5368747 5368738 5368737 5368736 5368737 5368742 5368743 5368742 5368741 5368725 5368726 5368725 5368724 5368717 5368716 5368715 5368716 5368737 5368738 5368737 5368736 5368744 5368743 5368742 5368743 5368746 5368745 5368744 5368745 10737418 10737418 999999 0 5368751 5368750 5368749 5368750 
5368709 5368709 5368709 5368709 5368709 5368749 5368748 5368747 5368748 5368739 5368738 5368737 5368738 5368743 5368744 5368743 5368742 5368726 5368727 5368726 5368725 5368718 5368717 5368716 5368717 5368738 5368739 5368738 5368737 5368745 5368744 5368743 5368744 5368747 5368746 5368745 5368746 0 10737418 10737418 999999 5368752 5368751 5368750 5368751 
5368709 5368709 5368709 5368709 5368709 5368721 5368722 5368721 5368720 5368729 5368728 5368729 5368730 5368727 5368728 5368727 5368726 5368736 5368737 5368738 5368737 5368744 5368745 5368746 5368745 5368734 5368735 5368734 5368733 5368735 5368736 5368737 5368736 5368727 5368726 5368727 5368728 5368751 5368750 5368751 5368752 999999 0 10737418 10737418 
5368709 5368709 5368709 5368709 5368709 5368720 5368721 5368722 5368721 5368728 5368727 5368728 5368729 5368728 5368729 5368728 5368727 5368737 5368738 5368739 5368738 5368745 5368746 5368747 5368746 5368735 5368736 5368735 5368734 5368736 5368737 5368738 5368737 5368726 5368725 5368726 5368727 5368752 5368751 5368752 5368753 10737418 999999 0 10737418 
5368709 5368709 5368709 5368709 5368709 5368719 5368720 5368721 5368720 5368729 5368728 5368729 5368730 5368727 5368728 5368727 5368726 5368736 5368737 5368738 5368737 5368744 5368745 5368746 5368745 5368734 5368735 5368734 5368733 5368735 5368736 5368737 5368736 5368727 5368726 5368727 5368728 5368751 5368750 5368751 5368752 10737418 10737418 999999 0 
5368709 5368709 5368709 5368709 5368709 5368720 5368721 5368720 5368719 5368728 5368727 5368728 5368729 5368726 5368727 5368726 5368725 5368735 5368736 5368737 5368736 5368743 5368744 5368745 5368744 5368733 5368734 5368733 5368732 5368734 5368735 5368736 5368735 5368728 5368727 5368728 5368729 5368750 5368749 5368750 5368751 0 10737418 10737418 999999 
EOF
