GLKH-1.1/TMP/mtspf.pid6779.tour
NAME : mtspf.pid6779.gtsp.80530738.tour
COMMENT : Length = 80530738
COMMENT : Found by LKH [Keld Helsgaun] Fri Feb 28 18:45:21 2025
TYPE : TOUR
DIMENSION : 45
TOUR_SECTION
1
28
29
26
27
19
20
21
18
22
23
24
25
39
40
41
38
5
32
33
30
31
14
15
16
17
7
8
9
6
44
45
42
43
35
36
37
34
11
12
13
10
4
2
3
-1
EOF
